p cnf 68 255
-2 -3 -4 0
2 3 -4 0
-2 3 4 0
2 -3 4 0
1 4 -5 0
-1 -4 -5 0
1 -4 5 0
-1 4 5 0
-7 5 0
-7 -6 0
-5 6 7 0
-10 -8 0
-10 -9 0
8 9 10 0
-1 10 -11 0
1 -10 -11 0
-1 -10 11 0
1 10 11 0
11 -1 -12 0
-11 1 -12 0
11 1 12 0
-11 -1 12 0
-13 -11 0
-13 -12 0
11 12 13 0
15 -13 0
15 -14 0
13 14 -15 0
-16 15 0
-16 8 0
-15 -8 16 0
-19 -17 0
-19 18 0
17 -18 19 0
20 1 0
20 -19 0
-1 19 -20 0
21 5 0
21 5 0
-5 -21 0
-14 21 -22 0
14 -21 -22 0
-14 -21 22 0
14 21 22 0
-23 -20 0
-23 -22 0
20 22 23 0
-24 -16 0
-24 -23 0
16 23 24 0
8 24 -25 0
-8 -24 -25 0
8 -24 25 0
-8 24 25 0
-7 -25 -26 0
7 25 -26 0
-7 25 26 0
7 -25 26 0
27 9 0
27 -6 0
-9 6 -27 0
17 27 -28 0
-17 -27 -28 0
17 -27 28 0
-17 27 28 0
29 16 0
29 -28 0
-16 28 -29 0
30 -26 0
30 -29 0
26 29 -30 0
31 -14 0
31 17 0
14 -17 -31 0
32 -10 0
32 22 0
10 -22 -32 0
-33 -31 0
-33 32 0
31 -32 33 0
-30 -33 -34 0
30 33 -34 0
-30 33 34 0
30 -33 34 0
-35 6 0
-35 6 0
-6 35 0
36 1 0
36 9 0
-1 -9 -36 0
37 8 0
37 36 0
-8 -36 -37 0
38 21 0
38 37 0
-21 -37 -38 0
39 35 0
39 -38 0
-35 38 -39 0
40 -34 0
40 -39 0
34 39 -40 0
5 -6 -41 0
-5 6 -41 0
5 6 41 0
-5 -6 41 0
24 41 -42 0
-24 -41 -42 0
24 -41 42 0
-24 41 42 0
43 4 0
43 -18 0
-4 18 -43 0
-44 -9 0
-44 13 0
9 -13 44 0
-45 -44 0
-45 16 0
44 -16 45 0
-45 -24 -46 0
45 24 -46 0
-45 24 46 0
45 -24 46 0
-43 -46 -47 0
43 46 -47 0
-43 46 47 0
43 -46 47 0
-48 -11 0
-48 -15 0
11 15 48 0
-48 -5 -49 0
48 5 -49 0
-48 5 49 0
48 -5 49 0
50 -22 0
50 49 0
22 -49 -50 0
47 50 -51 0
-47 -50 -51 0
47 -50 51 0
-47 50 51 0
-52 42 0
-52 -51 0
-42 51 52 0
40 -52 -53 0
-40 52 -53 0
40 52 53 0
-40 -52 53 0
-16 8 -54 0
16 -8 -54 0
-16 -8 54 0
16 8 54 0
-55 13 0
-55 21 0
-13 -21 55 0
-57 -5 0
-57 -56 0
5 56 57 0
-58 -55 0
-58 57 0
55 -57 58 0
54 -58 -59 0
-54 58 -59 0
54 58 59 0
-54 -58 59 0
60 -37 0
60 41 0
37 -41 -60 0
-61 59 0
-61 60 0
-59 -60 61 0
3 4 -62 0
-3 -4 -62 0
3 -4 62 0
-3 4 62 0
63 21 0
63 62 0
-21 -62 -63 0
-61 63 -64 0
61 -63 -64 0
-61 -63 64 0
61 63 64 0
-65 -16 0
-65 62 0
16 -62 65 0
44 -65 -66 0
-44 65 -66 0
44 65 66 0
-44 -65 66 0
67 -64 0
67 66 0
64 -66 -67 0
68 -53 0
68 -67 0
53 67 -68 0
-12 32 -48 -54 0
-46 50 47 -26 0
-31 -3 -41 0
-10 9 0
53 50 59 2 7 0
46 -40 28 0
-24 68 14 0
-63 -31 34 -62 47 -1 0
-22 -35 -27 53 28 0
24 -29 -54 0
18 35 8 0
56 18 -67 -16 0
-18 -21 -59 24 0
35 4 -2 -37 16 0
38 -5 34 33 8 0
-9 7 -21 -23 29 0
38 -26 21 25 0
11 -62 -6 0
-32 21 -33 5 23 0
54 0
28 -42 30 57 0
-43 -4 -41 0
52 46 -16 -60 33 63 0
-44 13 -43 -60 -45 -36 0
-39 -10 0
-62 29 -21 -40 66 0
-38 -36 -7 47 -28 0
-38 64 33 21 0
1 18 -55 -65 -23 0
12 15 28 9 65 56 0
-48 -63 -32 -9 -66 0
19 5 18 29 0
-43 49 0
-26 30 13 0
4 -61 -17 0
-7 -33 -67 -65 0
56 -7 18 -32 -54 36 0
-15 47 -35 49 58 0
34 -15 31 -29 -55 0
43 -49 -58 0
-2 -62 19 8 0
13 22 -21 -55 24 36 0
58 -19 0
60 47 0
6 61 0
-29 -18 -4 65 -34 41 0
-52 -58 2 -7 14 0
-67 10 0
-31 -21 16 6 -18 0
-60 12 -25 28 -10 0
-11 1 30 0
-8 9 54 -62 0
-48 -58 -35 -45 -20 0
26 -46 0
16 -62 32 -66 29 -52 0
-10 -21 45 -13 0
45 49 0
-19 -35 0
-4 -24 -23 0
68 0
